Please solve the following SAT Problem encoded in DIMACS format, provide line of thoughts, write your final answer as a single solution at the end of response with header 'answer: ' : 
p cnf 10 45
6 7 2 0
-5 -1 -7 0
6 9 -1 0
7 2 3 0
4 2 -3 0
-8 -3 4 0
2 -9 4 0
-4 -9 -3 0
6 2 -5 0
7 -8 -5 0
3 10 -1 0
6 -8 -1 0
-3 4 -2 0
6 -10 -9 0
7 8 4 0
-5 -3 8 0
-7 -1 -9 0
5 -1 6 0
10 7 6 0
7 -9 4 0
-8 -5 7 0
7 2 4 0
-7 -1 2 0
-5 -1 -2 0
-9 -8 10 0
-1 7 4 0
1 -8 -5 0
-3 7 6 0
6 -3 -5 0
-2 -8 10 0
10 5 6 0
10 -9 -4 0
-8 -3 -9 0
6 -2 -9 0
1 10 -9 0
2 -7 -9 0
-1 -10 6 0
-9 7 3 0
3 6 4 0
-3 -9 6 0
7 -8 -9 0
7 -5 -9 0
-5 10 6 0
-10 -1 -3 0
7 -9 2 0

